words_train/words_316_UNSAT.qaiger
aag 70 16 0 1 54
26
28
18
30
32
16
22
2
6
20
4
12
10
24
14
8
141
34 29 17
36 6 4
38 36 8
40 38 10
42 40 12
44 41 13
46 45 43
48 46 34
50 27 17
52 39 11
54 53 41
56 54 51
58 55 50
60 59 57
62 61 49
64 47 35
66 21 13
68 66 5
70 67 4
72 71 69
74 19 11
76 74 3
78 75 2
80 79 77
82 81 72
84 23 15
86 7 5
88 87 37
90 89 84
92 88 85
94 93 91
96 95 82
98 25 17
100 37 9
102 101 39
104 103 98
106 102 99
108 107 105
110 109 96
112 110 65
114 112 62
116 42 14
118 32 17
120 118 117
122 119 116
124 123 121
126 124 114
128 31 17
130 43 15
132 131 117
134 133 128
136 132 129
138 137 135
140 139 126
i0 2 y[4]
i1 2 y[5]
i2 2 y[0]
i3 2 y[6]
i4 2 y[7]
i5 1 x[7]
i6 2 y[2]
i7 1 x[0]
i8 1 x[2]
i9 2 y[1]
i10 1 x[1]
i11 1 x[5]
i12 1 x[4]
i13 2 y[3]
i14 1 x[6]
i15 1 x[3]
o0 bool[0]
c
simplified
  !=
    subtract
      1
      invert
        1 x
    or
      2 y
      >> 4
        1 x
