words_train/words_316_UNSAT.qaiger.qdimacs
p cnf 70 163
a 1 2 3 4 5 6 7 8 0
e 9 10 11 12 13 14 15 16 17 18 19 20 21 22 23 24 25 26 27 28 29 30 31 32 33 34 35 36 37 38 39 40 41 42 43 44 45 46 47 48 49 50 51 52 53 54 55 56 57 58 59 60 61 62 63 64 65 66 67 68 69 70 0
14 8 17 0
-14 -17 0
-8 -17 0
-3 -2 18 0
3 -18 0
2 -18 0
-18 -4 19 0
18 -19 0
4 -19 0
-19 -5 20 0
19 -20 0
5 -20 0
-20 -6 21 0
20 -21 0
6 -21 0
20 6 22 0
-20 -22 0
-6 -22 0
22 21 23 0
-22 -23 0
-21 -23 0
-23 -17 24 0
23 -24 0
17 -24 0
13 8 25 0
-13 -25 0
-8 -25 0
19 5 26 0
-19 -26 0
-5 -26 0
26 20 27 0
-26 -27 0
-20 -27 0
-27 25 28 0
27 -28 0
-25 -28 0
27 -25 29 0
-27 -29 0
25 -29 0
29 28 30 0
-29 -30 0
-28 -30 0
30 24 31 0
-30 -31 0
-24 -31 0
23 17 32 0
-23 -32 0
-17 -32 0
10 6 33 0
-10 -33 0
-6 -33 0
-33 2 34 0
33 -34 0
-2 -34 0
33 -2 35 0
-33 -35 0
2 -35 0
35 34 36 0
-35 -36 0
-34 -36 0
9 5 37 0
-9 -37 0
-5 -37 0
-37 1 38 0
37 -38 0
-1 -38 0
37 -1 39 0
-37 -39 0
1 -39 0
39 38 40 0
-39 -40 0
-38 -40 0
40 -36 41 0
-40 -41 0
36 -41 0
11 7 42 0
-11 -42 0
-7 -42 0
3 2 43 0
-3 -43 0
-2 -43 0
43 18 44 0
-43 -44 0
-18 -44 0
44 -42 45 0
-44 -45 0
42 -45 0
-44 42 46 0
44 -46 0
-42 -46 0
46 45 47 0
-46 -47 0
-45 -47 0
47 -41 48 0
-47 -48 0
41 -48 0
12 8 49 0
-12 -49 0
-8 -49 0
18 4 50 0
-18 -50 0
-4 -50 0
50 19 51 0
-50 -51 0
-19 -51 0
51 -49 52 0
-51 -52 0
49 -52 0
-51 49 53 0
51 -53 0
-49 -53 0
53 52 54 0
-53 -54 0
-52 -54 0
54 -48 55 0
-54 -55 0
48 -55 0
-55 32 56 0
55 -56 0
-32 -56 0
-56 -31 57 0
56 -57 0
31 -57 0
-21 -7 58 0
21 -58 0
7 -58 0
-16 8 59 0
16 -59 0
-8 -59 0
-59 58 60 0
59 -60 0
-58 -60 0
59 -58 61 0
-59 -61 0
58 -61 0
61 60 62 0
-61 -62 0
-60 -62 0
-62 -57 63 0
62 -63 0
57 -63 0
15 8 64 0
-15 -64 0
-8 -64 0
21 7 65 0
-21 -65 0
-7 -65 0
65 58 66 0
-65 -66 0
-58 -66 0
66 -64 67 0
-66 -67 0
64 -67 0
-66 64 68 0
66 -68 0
-64 -68 0
68 67 69 0
-68 -69 0
-67 -69 0
69 -63 70 0
-69 -70 0
63 -70 0
-70 0
